*HEADING
ATD verification cube
*PART, NAME=BLOCK
*NODE
1, 0., 0., 0.
2, 1., 0., 0.
3, 1., 1., 0.
4, 0., 1., 0.
5, 0., 0., 1.
6, 1., 0., 1.
7, 1., 1., 1.
8, 0., 1., 1.
*ELEMENT, TYPE=C3D8R, ELSET=EALL
1, 1, 2, 3, 4, 5, 6, 7, 8
*NSET, NSET=BOTTOM
1, 2, 3, 4
*NSET, NSET=TOP
5, 6, 7, 8
*SURFACE, NAME=TOP_SURF, TYPE=ELEMENT
EALL, S2
*SURFACE, NAME=BOTTOM_SURF, TYPE=ELEMENT
EALL, S1
*SOLID SECTION, ELSET=EALL, MATERIAL=STEEL
,
*END PART
*MATERIAL, NAME=STEEL
*DENSITY
7.85e-9,
*ELASTIC
210000., 0.3
*PLASTIC
250., 0.
300., 0.05
350., 0.15
*DAMAGE INITIATION, CRITERION=DUCTILE
0.25, 0.333, 0.
*DAMAGE EVOLUTION, TYPE=DISPLACEMENT
0.1,
*ASSEMBLY, NAME=ASSEMBLY
*INSTANCE, NAME=BLOCK-1, PART=BLOCK
10., 0., 0.
*END INSTANCE
*NSET, NSET=FIXED, INSTANCE=BLOCK-1
BOTTOM
*NSET, NSET=LOADED, INSTANCE=BLOCK-1
TOP
*END ASSEMBLY
*SURFACE INTERACTION, NAME=FRIC
*FRICTION
0.2,
*CONTACT
*CONTACT INCLUSIONS, ALL EXTERIOR
*CONTACT PROPERTY ASSIGNMENT
, , FRIC
*AMPLITUDE, NAME=RAMP
0., 0., 0.01, 1.
*STEP, NAME=IMPACT
*DYNAMIC, EXPLICIT
, 0.01
*BOUNDARY
FIXED, ENCASTRE
*CLOAD, AMPLITUDE=RAMP
LOADED, 3, -100.
*DSLOAD, AMPLITUDE=RAMP
TOP_SURF, P, 5.
*END STEP
